=1
=2
=0IBM ILOG CPLEX   42.1.0 cb854401 Feb 1, 2023           LEG x86 64bit/Linux    
=1
--- GAMS/Cplex licensed for continuous and discrete problems.
=2
=C
=1
=CReading parameter(s) from "/storage/home/ejm6426/scratch/rtRBA-main/parameterization/kapp/datasets/Rabinowitz2023_batchGlc/min_flux_violation/cplex.opt"
=C>>  optcr = 1E-12
=C>>  optca = 1E-12
=C>>  eprhs = 1E-9
=C>> 
=CFinished reading from "/storage/home/ejm6426/scratch/rtRBA-main/parameterization/kapp/datasets/Rabinowitz2023_batchGlc/min_flux_violation/cplex.opt"
=2
=C
=1
--- GMO setup time: 0.00s
=2
=1
--- Space for names approximately 0.57 Mb
=2
=1
--- Use option 'names no' to turn use of names off
=2
=1
--- GMO memory 7.14 Mb (peak 7.23 Mb)
=2
=1
--- Dictionary memory 0.00 Mb
=2
=1
--- Cplex 22.1.1.0 link memory 0.31 Mb (peak 2.26 Mb)
=2
=1
--- Starting Cplex
=2
=C
Version identifier: 22.1.1.0 | 2022-11-28 | 9160aff4d
CPXPARAM_Advance                                 2
CPXPARAM_Threads                                 1
CPXPARAM_MIP_Display                             4
CPXPARAM_MIP_Pool_Capacity                       0
CPXPARAM_Simplex_Limits_Iterations               1000000
CPXPARAM_Simplex_Tolerances_Feasibility          1.0000000000000001e-09
CPXPARAM_TimeLimit                               1000000
CPXPARAM_MIP_Tolerances_AbsMIPGap                9.9999999999999998e-13
CPXPARAM_MIP_Tolerances_MIPGap                   9.9999999999999998e-13
Tried aggregator 1 time.
LP Presolve eliminated 3377 rows and 9685 columns.
Aggregator did 1793 substitutions.
Reduced LP has 574 rows, 1204 columns, and 11912 nonzeros.
Presolve time = 0.07 sec. (18.65 ticks)
Using devex.

Iteration log . . .
Iteration:     1    Objective     =       8216934.888228
Iteration:    98    Objective     =       7563034.716348
Removing shift (1).
Iteration:   116    Infeasibility =             0.000002
Switched to devex.
=C
=1
--- LP status (5): optimal with unscaled infeasibilities.
=2
=1
--- Cplex Time: 0.09sec (det. 43.74 ticks)

=2
=C
=COptimal solution found, but with infeasibilities after unscaling
=CObjective:      7563034.716184
=C
